c --- [ banner ] -------------------------------------------------------------
c 
c CaDiCaL Radically Simplified CDCL SAT Solver
c Copyright (c) 2016-2021 A. Biere, M. Fleury, N. Froleyks
c 
c Version 1.5.2 a5f15211db36c3956764e18194dd5bd63bf3b5e6
c g++ (GCC) 9.3.0 -Wall -Wextra -O3 -DNDEBUG
c Fri Oct 21 01:27:37 EDT 2022 Linux gra-login3 3.10.0-1160.66.1.el7.x86_64 x86_64
c 
c --- [ limit ] --------------------------------------------------------------
c 
c setting conflict limit to 200000 conflicts (due to '200000')
c 
c --- [ parsing input ] ------------------------------------------------------
c 
c reading DIMACS file from '23.cubes223.adj'
c opening file to read '23.cubes223.adj'
c found 'p cnf 5320 914892' header
c parsed 914892 clauses in 8.29 seconds process time
c closing file '23.cubes223.adj'
c after reading 637829990 bytes 608.3 MB
c 
c --- [ options ] ------------------------------------------------------------
c 
c all options are set to their default value
c 
c --- [ solving ] ------------------------------------------------------------
c 
c time measured in process time since initialization
c 
c  seconds   reductions  redundant  irredundant
c          MB    restarts       trail      variables
c           level   conflicts       glue        remaining
c 
c *  8.29 630  0 0   0    0    0  0% 0 914847 2180 41%
c {  8.91 663  0 0   0    0    0  0% 0 914847 2180 41%
c i  9.11 668 1062 0   0    8    7 33% 1 914847 2161 41%
c i 11.03 713 524 0  10   76   65 33% 19 914847 2153 40%
c i 11.07 713 490 0  10   84   71 31% 17 914847 2151 40%
c i 11.73 719 436 0  15   98   83 30% 26 914847 2150 40%
c i 12.33 722 302 0  22  145  118 28% 24 914847 2149 40%
c i 12.34 722 294 0  22  149  121 28% 23 914847 2148 40%
c i 12.44 722 290 0  22  152  123 28% 24 914847 2145 40%
c i 12.65 723 244 0  25  184  149 28% 23 914847 2134 40%
c i 12.68 723 230 0  25  196  159 28% 23 914847 2133 40%
c i 12.72 723 224 0  25  202  163 28% 23 914847 2132 40%
c i 13.43 725 176 0  36  284  230 27% 26 914847 2130 40%
c i 13.51 725 172 0  39  296  239 27% 28 914847 2129 40%
c i 13.52 725 171 0  39  298  240 27% 27 914847 2128 40%
c - 15.10 702 171 1  41  301  243 27% 28 290037 2128 40%
c i 15.21 702 171 1  42  308  249 27% 30 290037 2127 40%
c i 15.34 655 173 1  44  317  257 27% 33 290037 2126 40%
c i 15.43 655 170 1  47  330  268 28% 35 290037 2125 40%
c i 15.63 655 168 1  52  350  286 28% 36 290037 2124 40%
c 
c  seconds    reductions  redundant   irredundant
c          MB     restarts       trail       variables
c            level   conflicts       glue         remaining
c 
c i 15.77 655 165 1  56  366  301 27% 36 290037 2123 40%
c i 16.32 655 151 1  67  436  356 27% 35 290037 2122 40%
c i 16.46 655 149 1  67  458  376 27% 36 290037 2121 40%
c i 16.54 656 148 1  68  469  385 27% 36 290037 2120 40%
c i 16.75 656 145 1  75  498  407 27% 38 290037 2119 40%
c i 16.83 656 144 1  77  505  412 27% 38 290037 2118 40%
c i 16.87 656 144 1  78  512  418 27% 39 290037 2117 40%
c i 16.90 656 144 1  80  520  424 27% 39 290037 2115 40%
c i 17.40 657 138 1  87  562  459 26% 38 290037 2114 40%
c i 17.83 657 124 1  93  709  574 27% 39 290037 2113 40%
c i 17.84 657 124 1  93  713  577 27% 38 290037 2112 40%
c i 17.93 657 117 1  93  801  643 27% 37 290037 2111 40%
c i 18.08 657 107 1  93  922  720 27% 36 290037 2110 40%
c i 18.09 657 107 1  93  925  722 27% 36 290037 2109 40%
c } 18.13 657 101 1  93 1000  769 27% 35 290037 2109 40%
c [ 18.13 657  0 1  93 1000  769  0% 0 290037 2109 40%
c O 18.14 657 18 1  93 1002  770 22% 9 290037 2109 40%
c i 18.14 657 18 1  93 1002  770 22% 9 290037 2095 39%
c i 18.16 657  5 1  93 1012  775 13% 3 290037 2052 39%
c i 18.16 657  4 1  93 1013  775 13% 3 290037 2010 38%
c 
c  seconds   reductions  redundant   irredundant
c          MB    restarts       trail       variables
c           level   conflicts       glue         remaining
c 
c i 18.44 657 18 1  93 1050  808 26% 12 290037 2009 38%
c i 18.44 657 18 1  93 1051  808 26% 12 290037 2008 38%
c - 19.21 779 24 2  93 1180  764 30% 19 287990 2008 38%
c i 19.28 779 24 2  93 1184  765 30% 19 287990 2007 38%
c i 19.62 779 24 2  93 1309  873 30% 19 287990 2006 38%
c i 19.65 779 25 2  93 1338  899 30% 20 287990 2005 38%
c i 19.67 779 25 2  93 1365  916 30% 20 287990 2004 38%
c i 19.85 779 25 2  93 1555 1060 30% 20 287990 2003 38%
c i 19.92 779 25 2  93 1626 1117 30% 20 287990 2002 38%
c i 20.04 779 25 2  93 1815 1259 30% 20 287990 2001 38%
c i 20.05 779 25 2  93 1820 1263 30% 20 287990 2000 38%
c i 20.26 779 25 2  94 2086 1461 30% 20 287990 1999 38%
c - 20.97 777 26 3  94 2493 1386 30% 20 287963 1999 38%
c i 21.38 777 26 3  94 2622 1465 57% 21 287963 1998 38%
c ] 21.91 777 25 3  94 3000 1670 56% 20 287963 1998 38%
c { 21.91 777 101 3  94 3000 1670 72% 35 287963 1998 38%
c F 21.94 777 101 3  94 3003 1672 72% 35 287963 1998 38%
c i 22.27 777 94 3  94 3084 1721 69% 33 287963 1997 38%
c i 22.45 777 86 3  94 3277 1881 67% 31 287963 1996 38%
c i 22.55 777 86 3 100 3303 1902 66% 31 287963 1995 38%
c 
c  seconds   reductions  redundant   irredundant
c          MB    restarts       trail       variables
c           level   conflicts       glue         remaining
c 
c i 23.49 777 81 3 119 3597 2150 63% 32 287963 1994 37%
c i 24.04 777 82 3 132 3642 2190 62% 32 287963 1993 37%
c i 24.40 777 82 3 138 3709 2241 61% 32 287963 1992 37%
c i 25.17 777 83 3 151 3827 2347 60% 32 287963 1991 37%
c i 25.52 777 81 3 157 3921 2414 59% 32 287963 1990 37%
c i 26.83 777 82 3 193 4098 2571 59% 33 287963 1989 37%
c - 27.96 775 81 4 214 4244 1958 58% 33 287933 1989 37%
c 3 28.77 775 69 4 216 5001 3149 56% 31 287923 1984 37%
c p 33.01 775 69 4 216 5001 5263 56% 31 287923 1945 37%
c d 33.35 775 69 4 216 5001 5253 56% 31 224906 1944 37%
c # 36.06 775 66 4 284 6006 6042 54% 31 224906 1944 37%
c - 36.91 749 64 5 285 6432 2852 54% 31 224906 1944 37%
c } 37.34 749 60 5 286 7004 3300 54% 30 224906 1944 37%
c [ 37.34 749 25 5 286 7004 3300 56% 20 224906 1944 37%
c - 38.32 658 27 6 287 8866 3072 54% 23 224906 1944 37%
c I 39.10 658 28 6 288 10008 3760 53% 23 224906 1944 37%
c - 41.58 750 41 7 290 11705 3535 52% 32 224906 1944 37%
c - 44.35 658 52 8 291 14949 4209 52% 41 224906 1944 37%
c p 45.85 657 52 8 291 15001 7237 52% 41 224906 1944 37%
c ] 45.96 657 52 8 291 15005 7239 52% 41 224906 1944 37%
c 
c  seconds   reductions   redundant   irredundant
c          MB    restarts        trail       variables
c           level    conflicts       glue         remaining
c 
c { 45.96 657 60 8 291 15005 7239 54% 30 224906 1944 37%
c B 46.09 657 60 8 291 15009 7242 54% 30 224906 1944 37%
c s 50.03 657 54 8 406 17431 8992 53% 29 223291 1944 37%
c v 53.79 657 54 8 406 17431 8992 53% 29 223276 1944 37%
c t 53.91 657 54 8 406 17431 8978 53% 29 223264 1944 37%
c e 54.83 658 54 8 406 17431 7059 53% 29 221042 886 17%
c s 54.91 658 54 8 406 17431 7059 53% 29 219694 886 17%
c - 56.69 659 51 9 408 18600 4953 74% 28 219694 886 17%
c W 59.98 659 47 9 489 21010 6801 74% 27 219694 886 17%
c - 63.19 750 46 10 626 22627 5433 73% 27 219694 886 17%
c - 64.77 659 39 11 626 27055 5532 75% 24 219694 886 17%
c F 65.20 659 38 11 626 28011 6257 75% 24 219694 886 17%
c p 69.29 659 37 11 627 30001 9626 75% 24 219694 885 17%
c } 71.76 659 37 11 726 31007 10381 74% 24 219694 885 17%
c [ 71.76 659 52 11 726 31007 10381 117% 41 219694 885 17%
c - 73.08 750 50 12 726 31886 6447 113% 40 219691 885 17%
c B 75.65 750 45 12 729 36012 8864 100% 36 219691 885 17%
c - 76.30 659 44 13 729 37119 6573 98% 35 219691 885 17%
c - 78.89 751 41 14 733 42754 7242 91% 33 219691 885 17%
c W 80.76 751 40 14 733 45014 8797 89% 33 219691 885 17%
c 
c  seconds   reductions    redundant   irredundant
c          MB     restarts        trail       variables
c           level     conflicts       glue        remaining
c 
c - 82.40 659 39 15 734 48792 7955 87% 32 219691 885 17%
c s 82.64 659 39 15 734 49250 8266 86% 32 217759 885 17%
c v 85.58 659 39 15 734 49250 8266 86% 32 217751 885 17%
c e 86.57 659 39 15 734 49250 8265 86% 32 217747 881 17%
c s 86.70 659 39 15 734 49250 8265 86% 32 215500 881 17%
c p 89.95 659 38 15 734 50002 11063 86% 32 215500 880 17%
c O 91.56 659 37 15 735 55016 14453 84% 31 215500 880 17%
c - 91.95 750 37 16 735 55237 8804 84% 31 215497 880 17%
c - 93.37 659 34 17 740 62039 8799 82% 29 215497 880 17%
c ] 93.55 659 34 17 741 63008 9431 82% 29 215497 880 17%
c { 93.55 659 37 17 741 63008 9431 74% 24 215497 880 17%
c B 96.87 659 37 17 918 66017 11679 74% 24 215497 880 17%
c - 100.02 750 36 18 1012 69240 9677 74% 24 215497 880 17%
c p 103.48 750 33 18 1029 75004 16113 73% 23 215497 880 17%
c - 104.42 658 32 19 1029 76840 10293 73% 22 215497 880 17%
c W 104.93 658 32 19 1029 78018 11039 73% 22 215497 880 17%
c - 108.90 660 30 20 1114 84841 11047 73% 21 215497 880 17%
c # 113.93 660 29 20 1311 91020 15011 73% 21 215497 880 17%
c - 119.38 751 30 21 1543 93243 11673 73% 21 215497 880 17%
c s 121.36 751 29 21 1572 96858 14158 73% 21 213894 880 17%
c 
c  seconds    reductions      redundant   irredundant
c           MB     restarts          trail       variables
c            level      conflicts        glue        remaining
c 
c v 125.38 751 29 21 1572 96858 14158 73% 21 213893 880 17%
c s 126.49 751 29 21 1572 96858 14157 73% 21 211301 880 17%
c - 137.18 660 30 22 2138 102047 12984 73% 21 211301 880 17%
c p 141.09 660 29 22 2150 105004 17933 73% 21 211301 880 17%
c B 141.35 660 29 22 2150 105025 17949 73% 21 211301 880 17%
c - 146.47 660 29 23 2391 111188 13334 73% 21 211301 880 17%
c W 155.95 660 28 23 2778 120028 19187 74% 20 211301 880 17%
c - 156.20 660 28 24 2778 120727 13855 74% 20 211301 880 17%
c } 157.07 660 27 24 2780 124362 15977 74% 20 211301 880 17%
c 1 157.07 660 27 24 2780 124362 15977 74% 20 211301 880 17%
c 
c --- [ writing output ] -----------------------------------------------------
c 
c writing simplified CNF to DIMACS file 'simp/23.cubes223.adj.simp1'
c * 157.07 660 27 24 2780 124362 15977 74% 20 211301 880 17%
c opening file to write 'simp/23.cubes223.adj.simp1'
c writing 'p cnf 5320 211301' header
c closing file 'simp/23.cubes223.adj.simp1'
c after writing 101279702 bytes 96.6 MB
c wrote 211301 clauses in 0.73 seconds process time
c 
c --- [ writing extension ] --------------------------------------------------
c 
c writing extension stack to 'simp/23.cubes223.adj.ext1'
c opening file to write 'simp/23.cubes223.adj.ext1'
c closing file 'simp/23.cubes223.adj.ext1'
c after writing 74241 bytes 0.1 MB
c wrote 3207 witnesses in 0.00 seconds process time
c 
c --- [ result ] -------------------------------------------------------------
c 
s SATISFIABLE
c 
c --- [ run-time profiling ] -------------------------------------------------
c 
c process time taken by individual solving procedures
c (percentage relative to process time for solving)
c 
c       117.20   78.78% search
c        89.00   59.82% unstable
c        31.58   21.22% simplify
c        24.85   16.70% stable
c        13.63    9.16% probe
c        10.94    7.35% vivify
c         8.29    5.57% parse
c         5.06    3.40% elim
c         2.74    1.84% walk
c         0.76    0.51% subsume
c         0.62    0.41% lucky
c         0.21    0.14% ternary
c   =================================
c       148.78   94.28% solve
c 
c last line shows process time for solving
c (percentage relative to total process time)
c 
c --- [ statistics ] ---------------------------------------------------------
c 
c chronological:             23442        18.85 %  of conflicts
c conflicts:                124362       835.89    per second
c decisions:                296105      1990.25    per second
c eliminated:                 1062        19.96 %  of all variables
c fixed:                       535        10.06 %  of all variables
c learned:                  121521        97.72 %  per conflict
c learned_lits:           22753428       100.00 %  learned literals
c minimized:                     0         0.00 %  learned literals
c shrunken:               14360379        63.11 %  learned literals
c minishrunken:            1635961         7.19 %  learned literals
c propagations:            8708992         0.06 M  per second
c reduced:                   69410        55.81 %  per conflict
c rephased:                     15      8290.80    interval
c restarts:                   2780        44.73    interval
c stabilizing:                   3        33.77 %  of conflicts
c substituted:                   6         0.11 %  of all variables
c subsumed:                  47519         2.22 %  of all clauses
c strengthened:               9015         0.42 %  of all clauses
c ternary:                    3337         0.63 %  of resolved
c vivified:                     43         0.00 %  of all clauses
c walked:                        4     31090.50    interval
c weakened:                   2672         3.17    average size
c 
c seconds are measured in process time for solving
c 
c --- [ resources ] ----------------------------------------------------------
c 
c total process time since initialization:       157.81    seconds
c total real time since initialization:          157.87    seconds
c maximum resident set size of process:          897.65    MB
c 
c --- [ shutting down ] ------------------------------------------------------
c 
c exit 10
WARNING! DIMACS header mismatch: wrong number of variables.
============================[ Problem Statistics ]=============================
|                                                                             |
|  Number of variables:          2936                                         |
|  Number of clauses:          211301                                         |
|  Parse time:                   1.38 s                                       |
|  Simplification time:          0.02 s                                       |
|                                                                             |
============================[ Search Statistics ]====================================================
| Conflicts |          ORIGINAL         |          LEARNT          | Num Sols |      SUBGRAPHS      |
|           |    Vars  Clauses Literals |    Limit  Clauses Lit/Cl |          | Canonical Noncanon. |
=====================================================================================================
|       103 |    2860   211304 22205922 |     2000      103    173 |        0 |        19         3 |
|       418 |    2860   211469 22208728 |     2000      418     75 |        0 |        50       168 |
|       685 |    2860   211511 22209641 |     2000      685    101 |        0 |        55       210 |
|      1043 |    2860   211532 22210156 |     2000     1043    105 |        0 |        85       231 |
|      1576 |    2860   211559 22210823 |     2000     1576    103 |        0 |        98       258 |
|      2392 |    2860   211616 22212065 |     3602     1394     67 |        0 |       119       315 |
|      3568 |    2860   211653 22212695 |     3602     2570     94 |        0 |       150       352 |
|      7115 |    2860   213492 22240020 |     5001     4316     40 |        0 |       627      2191 |
|      9950 |    2860   213765 22246438 |     6306     4656     58 |        0 |       703      2464 |
|     14164 |    2860   214135 22253623 |     7557     5721     58 |        0 |       821      2834 |
|     20131 |    2860   214336 22257277 |     8786     7917     72 |        0 |       953      3035 |
|     29536 |    2860   215092 22272053 |    11202     7938     55 |        0 |      1217      3791 |
|     43426 |    2860   216008 22289204 |    13609    10035     54 |        0 |      1510      4707 |
|     63144 |    2860   216265 22294301 |    16005    15549     72 |        0 |      1694      4964 |
|     95426 |    2860   219355 22343360 |    20806    12232     42 |        0 |      2417      8054 |
|    139950 |    2860   220090 22357514 |    24409    23759     71 |        0 |      2726      8789 |
|    207661 |    2860   222117 22387636 |    30408    24469     63 |        0 |      3189     10816 |
|    308003 |    2860   223933 22416233 |    37608    24611     54 |        0 |      3649     12632 |
|    457472 |    2860   225613 22448756 |    46024    29896     59 |        0 |      4230     14312 |
|    680020 |    2860   226478 22465117 |    55612    51632     73 |        0 |      4484     15177 |
|   1015611 |    2860   229544 22524069 |    68820    48431     60 |        0 |      5447     18243 |
|   1521736 |    2860   236881 22658819 |    84420    60556     59 |        0 |      7456     25580 |
|   2272831 |    2860   239794 22720121 |   103610    64441     48 |        2 |      8368     28491 |
|   3408847 |    2860   253536 22994652 |   126418   113665     74 |        7 |     11485     42228 |
|   5142012 |    2860   303290 23862567 |   156411    86823     37 |        7 |     17097     91982 |
|   7682672 |    2860   318834 24189964 |   191223   116095     40 |       16 |     21704    107517 |
|  11489440 |    2848   270970 23372235 |   228985   215625     68 |       16 |     27557    126610 |
=====================================================================================================
Number of solutions   : 17
Canonical subgraphs   : 29019          (20 /sec)
          order  3    : 1              (166667 /sec)
          order  4    : 1              (500000 /sec)
          order  5    : 1              (250000 /sec)
          order  6    : 1              (52632 /sec)
          order  7    : 1              (8264 /sec)
          order  8    : 2              (1389 /sec)
          order  9    : 6              (315 /sec)
          order 10    : 23             (90 /sec)
          order 11    : 118            (29 /sec)
          order 12    : 621            (16 /sec)
          order 13    : 3633           (19 /sec)
          order 14    : 5330           (27 /sec)
          order 15    : 10323          (22 /sec)
          order 16    : 6453           (16 /sec)
          order 17    : 2057           (16 /sec)
          order 18    : 252            (13 /sec)
          order 19    : 96             (16 /sec)
          order 20    : 83             (18 /sec)
          order 21    : 17             (1 /sec)
Noncanonical subgraphs: 129126         (638 /sec)
          order  3    : 0              (-nan /sec)
          order  4    : 0              (-nan /sec)
          order  5    : 0              (-nan /sec)
          order  6    : 0              (-nan /sec)
          order  7    : 0              (-nan /sec)
          order  8    : 0              (-nan /sec)
          order  9    : 0              (-nan /sec)
          order 10    : 0              (-nan /sec)
          order 11    : 0              (-nan /sec)
          order 12    : 0              (-nan /sec)
          order 13    : 7950           (6631 /sec)
          order 14    : 66521          (889 /sec)
          order 15    : 31890          (1137 /sec)
          order 16    : 13190          (717 /sec)
          order 17    : 9389           (128 /sec)
          order 18    : 104            (66 /sec)
          order 19    : 9              (1811 /sec)
          order 20    : 0              (-nan /sec)
Canonicity checking   : 1464.58 s
Noncanonicity checking: 202.279 s
Total canonicity time : 1666.86 s
database reductions   : 204
restarts              : 18941
conflicts             : 12835901       (2007 /sec)
decisions             : 16194028       (0.00 % random) (2532 /sec)
propagations          : 571275165      (89308 /sec)
conflict literals     : 1359685286     (57.46 % deleted)
actual reward         : 0.284487
Memory used           : 401.00 MB
CPU time              : 6396.66 s

UNSATISFIABLE
